
List of user-set options:

                                    Name   Value                used
                           compl_inf_tol = 1                     yes
                         constr_viol_tol = 1                     yes
                            dual_inf_tol = 1000                  yes
                           linear_solver = ma97                  yes
                              ma86_small = 1e-30                  no
                                  ma86_u = 0.0001                 no
                              ma97_order = best                  yes
                              ma97_small = 1e-30                 yes
                            ma97_switch1 = at_start              yes
                            ma97_switch2 = od_hd_reuse           yes
                                  ma97_u = 1e-06                 yes
                               ma97_umax = 0.5                   yes
                                max_iter = 1000                  yes
                    max_refinement_steps = 20                    yes
                    min_refinement_steps = 5                     yes
                                 mu_init = 1e-06                 yes
           mu_superlinear_decrease_power = 1.25                  yes
                   nlp_scaling_min_value = 1e-08                 yes
                        option_file_name = Preset_Case:_455_NCP.opt  yes
                             output_file = ./tmp/Preset_Case:_455_NCP.output  yes
                      print_user_options = yes                   yes
        required_infeasibility_reduction = 1                      no
                                     tol = 1e-08                 yes
                   warm_start_bound_frac = 1e-20                 yes
                   warm_start_bound_push = 1e-20                 yes
                   warm_start_init_point = yes                   yes
              warm_start_mult_bound_push = 1e-20                 yes
                warm_start_mult_init_max = 1e+40                 yes
             warm_start_slack_bound_frac = 1e-20                 yes
             warm_start_slack_bound_push = 1e-20                 yes

******************************************************************************
This program contains Ipopt, a library for large-scale nonlinear optimization.
 Ipopt is released as open source code under the Eclipse Public License (EPL).
         For more information visit http://projects.coin-or.org/Ipopt
******************************************************************************

This is Ipopt version 3.12.10, running with linear solver ma97.

Number of nonzeros in equality constraint Jacobian...:   117167
Number of nonzeros in inequality constraint Jacobian.:      213
Number of nonzeros in Lagrangian Hessian.............:    47513

Total number of variables............................:    29977
                     variables with only lower bounds:    11312
                variables with lower and upper bounds:    15135
                     variables with only upper bounds:        0
Total number of equality constraints.................:    29864
Total number of inequality constraints...............:       25
        inequality constraints with only lower bounds:        4
   inequality constraints with lower and upper bounds:        0
        inequality constraints with only upper bounds:       21

iter    objective    inf_pr   inf_du lg(mu)  ||d||  lg(rg) alpha_du alpha_pr  ls
   0 -1.2855106e-01 1.86e-01 2.00e+00  -6.0 0.00e+00    -  0.00e+00 0.00e+00   0
In iteration 0, 9 Slacks too small, adjusting variable bounds
   1 -1.2855106e-01 1.86e-01 3.24e+02  -6.0 1.06e+10    -  3.23e-14 5.41e-19h  1
   2 -1.2855096e-01 1.86e-01 1.07e+03  -6.0 2.44e+02    -  1.00e-02 9.35e-06f  1
   3 -1.2855028e-01 1.86e-01 1.05e+03  -6.0 1.27e+02    -  1.87e-02 5.79e-05h  1
   4 -1.2817861e-01 1.80e-01 1.04e+03  -6.0 1.27e+02    -  1.41e-02 3.06e-02h  1
   5 -1.2790155e-01 1.76e-01 1.03e+03  -6.0 1.23e+02    -  2.60e-03 2.42e-02h  1
   6 -1.2787684e-01 1.75e-01 1.01e+03  -6.0 1.19e+02    -  2.36e-02 2.22e-03h  1
   7 -1.2762114e-01 1.71e-01 9.80e+02  -6.0 6.45e+01    -  3.03e-02 2.24e-02h  1
   8 -1.2655149e-01 1.60e-01 9.25e+02  -6.0 3.45e+01    -  5.31e-02 6.70e-02h  1
   9 -1.2655091e-01 1.60e-01 1.92e+05  -6.0 5.55e+01    -  1.01e-01 3.88e-05h  1
iter    objective    inf_pr   inf_du lg(mu)  ||d||  lg(rg) alpha_du alpha_pr  ls
  10 -1.2501702e-01 1.45e-01 9.82e+04  -6.0 5.45e+01    -  4.32e-02 9.51e-02h  2
  11 -1.2353813e-01 1.30e-01 2.38e+05  -6.0 4.84e+01    -  1.95e-01 9.96e-02h  1
  12 -1.2281389e-01 1.26e-01 8.53e+05  -6.0 4.27e+01    -  2.65e-01 3.32e-02h  3
  13 -1.2156859e-01 1.18e-01 1.31e+06  -6.0 5.17e+01    -  4.59e-01 6.68e-02h  1
  14 -1.2030259e-01 1.10e-01 1.33e+06  -6.0 3.60e+01    -  4.90e-01 6.73e-02h  3
  15 -1.1947824e-01 1.05e-01 1.20e+06  -6.0 3.38e+01    -  4.37e-01 4.33e-02h  5
  16 -1.1850526e-01 9.97e-02 9.90e+05  -6.0 3.34e+01    -  5.28e-01 4.92e-02h  5
  17 -1.1787269e-01 9.68e-02 8.83e+05  -6.0 4.01e+01    -  2.94e-01 2.90e-02h  6
  18 -1.1716494e-01 9.38e-02 8.49e+05  -6.0 4.58e+01    -  5.87e-02 3.08e-02h  6
  19 -1.1600965e-01 8.93e-02 7.87e+05  -6.0 6.46e+01    -  1.37e-01 4.87e-02h  5
iter    objective    inf_pr   inf_du lg(mu)  ||d||  lg(rg) alpha_du alpha_pr  ls
  20 -1.1612890e-01 8.90e-02 7.84e+05  -6.0 3.09e+02    -  2.24e-02 2.70e-03h  5
  21 -1.1564294e-01 8.68e-02 7.58e+05  -6.0 4.51e+01    -  5.62e-02 2.46e-02h  6
  22 -1.1547956e-01 8.54e-02 7.23e+05  -6.0 5.85e+01    -  1.63e-01 1.63e-02h  6
  23 -1.1487204e-01 8.20e-02 7.25e+05  -6.0 2.29e+01  -4.0 1.87e-01 4.02e-02h  4
  24 -1.0099914e-01 3.52e+00 1.20e+05  -6.0 2.67e+01  -4.5 2.76e-01 8.73e-01w  1
  25 -1.0050857e-01 1.47e+00 1.13e+05  -6.0 3.61e+00  -4.1 1.57e-01 5.92e-01w  1
  26 -1.0053060e-01 1.46e+00 3.12e+05  -6.0 1.00e+01    -  5.75e-01 4.64e-03w  1
  27 -1.1443851e-01 7.98e-02 6.96e+05  -6.0 1.47e+01  -4.5 2.76e-01 2.73e-02h  5
  28 -1.1355256e-01 7.51e-02 6.52e+05  -6.0 2.50e+01  -4.1 2.13e-02 5.88e-02h  2
  29 -1.1346493e-01 7.48e-02 6.40e+05  -6.0 1.22e+02  -4.6 7.78e-02 3.91e-03h  1
iter    objective    inf_pr   inf_du lg(mu)  ||d||  lg(rg) alpha_du alpha_pr  ls
  30 -1.1276160e-01 7.11e-02 6.05e+05  -6.0 2.14e+01  -4.2 1.61e-02 4.96e-02h  3
  31 -1.1235640e-01 6.88e-02 6.16e+05  -6.0 1.44e+01  -3.7 9.03e-02 3.13e-02h  1
  32 -1.0289504e-01 1.21e-01 4.25e+05  -6.0 1.63e+01  -4.2 2.05e-02 7.88e-01H  1
  33 -1.0329189e-01 1.39e-01 9.70e+04  -6.0 1.96e+01  -4.7 3.45e-01 8.09e-02H  1
  34 -1.0348525e-01 1.44e-01 1.87e+04  -6.0 1.57e+01  -4.3 1.21e-01 3.39e-02h  4
  35 -1.0401211e-01 1.83e-01 4.36e+04  -6.0 5.89e+00  -3.8 5.00e-01 4.43e-01h  1
  36 -1.0390486e-01 1.67e-01 3.98e+05  -6.0 2.42e+00  -3.4 6.45e-01 8.92e-02h  1
  37 -1.0387463e-01 8.10e-03 2.09e+06  -6.0 2.87e+00  -3.0 1.33e-01 9.66e-01h  1
  38r-1.0387463e-01 8.10e-03 1.00e+03  -2.5 0.00e+00  -3.5 0.00e+00 3.11e-07R  3
  39r-1.0379806e-01 7.88e-03 9.99e+02  -2.5 1.25e+04    -  5.43e-05 2.68e-05f  1
iter    objective    inf_pr   inf_du lg(mu)  ||d||  lg(rg) alpha_du alpha_pr  ls
  40 -1.0703078e-01 5.11e-02 2.91e+02  -6.0 2.91e+02    -  2.63e-02 3.04e-02f  2
  41 -1.1018322e-01 1.01e-01 2.91e+02  -6.0 3.15e+02    -  6.19e-02 2.85e-02h  1
  42 -1.1108142e-01 1.04e-01 3.05e+02  -6.0 3.51e+02    -  7.99e-02 1.21e-02h  4
  43 -1.1196278e-01 1.07e-01 3.64e+02  -6.0 3.84e+02    -  2.65e-01 1.14e-02h  4
  44 -1.1276126e-01 1.11e-01 4.12e+02  -6.0 5.39e+02    -  1.88e-01 8.84e-03h  5
  45 -1.3097379e-01 4.38e+00 8.03e+02  -6.0 7.27e+02    -  2.53e-01 1.66e-01h  1
  46 -1.3535279e-01 4.22e+00 7.91e+02  -6.0 6.84e+02    -  8.00e-02 3.73e-02h  1
  47 -1.3982981e-01 3.99e+00 7.56e+02  -6.0 4.98e+02    -  8.03e-02 5.41e-02h  1
  48 -1.4533090e-01 3.29e+00 6.37e+02  -6.0 1.59e+02    -  8.50e-02 1.76e-01h  1
  49 -1.5262540e-01 2.01e+00 5.04e+02  -6.0 1.70e+02    -  2.76e-01 3.86e-01h  1
iter    objective    inf_pr   inf_du lg(mu)  ||d||  lg(rg) alpha_du alpha_pr  ls
  50 -1.5603065e-01 1.67e+00 4.17e+02  -6.0 2.80e+02    -  3.85e-01 1.71e-01h  1
  51 -1.5900991e-01 1.33e+00 3.39e+02  -6.0 4.32e+02    -  1.40e-01 1.99e-01h  1
  52 -1.6074027e-01 1.10e+00 3.39e+02  -6.0 4.80e+02    -  4.15e-01 1.64e-01h  1
  53 -1.6578059e-01 1.39e+00 5.28e+02  -6.0 7.88e+02    -  6.37e-01 3.48e-01h  1
  54 -1.6581618e-01 1.37e+00 3.75e+02  -6.0 6.76e+00  -3.9 9.07e-03 7.78e-03h  1
  55 -1.6602550e-01 1.32e+00 1.98e+03  -6.0 6.75e+00  -4.4 4.50e-03 4.18e-02h  1
  56 -1.6784503e-01 7.64e-01 7.46e+03  -6.0 8.87e+00  -4.9 2.53e-03 4.28e-01h  1
  57 -1.6882356e-01 2.50e-01 2.31e+03  -6.0 4.23e+00  -5.4 2.52e-01 6.90e-01f  1
  58 -1.6966045e-01 1.47e-01 1.24e+03  -6.0 1.11e+01  -5.8 2.54e-01 4.63e-01h  1
  59 -1.6976749e-01 1.09e-01 8.57e+02  -6.0 1.63e+01  -6.3 3.09e-01 3.08e-01h  1
iter    objective    inf_pr   inf_du lg(mu)  ||d||  lg(rg) alpha_du alpha_pr  ls
  60 -1.7010695e-01 9.81e-02 6.81e+02  -6.0 2.47e+01  -6.8 3.78e-01 2.06e-01h  1
  61 -1.7092310e-01 1.92e-01 3.58e+02  -6.0 6.98e+01  -7.3 6.29e-01 5.01e-01h  1
  62 -1.7149022e-01 1.65e-01 1.25e+03  -6.0 1.77e+02  -7.7 4.43e-01 1.83e-01h  1
  63 -1.7795510e-01 3.57e+00 2.35e+03  -6.0 4.25e+02  -8.2 3.62e-01 1.00e+00h  1
  64 -1.7894507e-01 1.94e+00 8.35e+03  -6.0 1.48e+02  -7.8 1.52e-01 4.83e-01h  1
  65 -1.8356778e-01 3.87e+00 1.89e+04  -6.0 6.25e+02  -8.3 4.30e-01 7.50e-01h  1
  66 -1.8449811e-01 2.86e+00 5.31e+04  -6.0 1.75e+02  -7.9 9.67e-02 2.62e-01h  1
  67 -1.8646626e-01 2.39e+00 1.54e+07  -6.0 8.10e+02  -8.3 6.37e-04 1.81e-01h  1
  68 -1.8918219e-01 2.19e+00 1.42e+04  -6.0 2.76e+02  -7.9 2.79e-01 1.00e+00h  1
  69 -1.9750515e-01 7.53e+00 6.01e+03  -6.0 1.19e+03  -8.4 8.17e-02 5.73e-01h  1
iter    objective    inf_pr   inf_du lg(mu)  ||d||  lg(rg) alpha_du alpha_pr  ls
  70 -1.9829362e-01 6.96e+00 5.54e+03  -6.0 5.90e+02  -8.0 2.15e-01 7.83e-02h  1
  71 -1.9987309e-01 4.82e+00 3.79e+03  -6.0 1.67e+02  -7.5 3.49e-01 3.13e-01h  1
  72 -2.0051373e-01 4.59e+00 3.61e+03  -6.0 8.29e+02  -8.0 6.26e-01 5.03e-02h  1
  73 -2.0065884e-01 4.44e+00 3.49e+03  -6.0 2.04e+02  -7.6 8.47e-01 3.19e-02h  1
  74 -2.0321757e-01 3.55e+00 2.66e+03  -6.0 8.26e+02  -8.1 1.00e+00 2.39e-01h  1
  75 -2.0579182e-01 1.65e+00 1.12e+03  -6.0 2.55e+02  -7.6 7.54e-01 5.77e-01h  1
  76 -2.0712731e-01 1.48e+00 9.82e+02  -6.0 8.89e+02  -8.1 4.97e-02 1.25e-01h  1
  77 -2.1596633e-01 6.05e+00 7.62e+01  -6.0 6.97e+02  -8.6 9.44e-02 9.16e-01h  1
  78 -2.1563247e-01 3.74e+00 4.79e+01  -6.0 1.52e+00  -4.5 6.31e-01 3.81e-01h  1
  79 -2.1535118e-01 6.14e-01 7.47e+00  -6.0 3.08e+00  -5.0 5.13e-01 8.36e-01h  1
iter    objective    inf_pr   inf_du lg(mu)  ||d||  lg(rg) alpha_du alpha_pr  ls
  80 -2.1546764e-01 5.31e-01 6.95e+00  -6.0 1.08e+01  -5.5 5.33e-01 1.34e-01h  1
  81 -2.1604903e-01 2.06e+00 5.73e+00  -6.0 2.30e+01  -6.0 3.10e-01 3.61e-01h  1
  82 -2.1679673e-01 5.47e+00 5.93e+00  -6.0 4.84e+01  -6.5 2.70e-01 2.26e-01h  1
  83 -2.1722446e-01 6.82e+00 1.16e+01  -6.0 7.82e+01  -6.9 4.83e-01 8.39e-02h  1
  84 -2.1740953e-01 3.32e+00 3.53e+00  -6.0 5.33e+01  -7.4 8.57e-01 5.20e-01h  1
  85 -2.1865359e-01 7.81e-01 2.33e+00  -6.0 1.40e+02  -7.9 1.00e+00 7.68e-01h  1
  86 -2.2331811e-01 1.44e+00 5.43e+00  -6.0 5.83e+02  -8.4 1.00e+00 1.00e+00h  1
  87 -2.2458698e-01 1.09e+00 9.54e+00  -6.0 3.35e+02  -7.9 1.00e+00 3.74e-01h  1
  88 -2.2929094e-01 4.58e+00 3.34e+01  -6.0 7.67e+02  -8.4 1.25e-01 1.00e+00h  1
  89 -2.3281634e-01 3.17e+00 2.52e+01  -6.0 1.22e+03  -8.0 2.49e-01 3.11e-01h  1
iter    objective    inf_pr   inf_du lg(mu)  ||d||  lg(rg) alpha_du alpha_pr  ls
  90 -2.3284507e-01 3.13e+00 2.07e+01  -6.0 6.46e+01  -6.7 2.96e-01 1.23e-02h  1
  91 -2.3346003e-01 2.23e+00 1.84e+01  -6.0 5.49e+01  -7.1 4.78e-01 2.92e-01h  1
  92 -2.3374140e-01 2.13e+00 1.56e+01  -6.0 2.35e+01  -6.7 5.59e-01 1.45e-01h  1
  93 -2.3515280e-01 1.33e+00 3.63e+01  -6.0 5.02e+01  -7.2 6.85e-01 1.00e+00h  1
  94 -2.3574586e-01 1.43e+00 2.69e+01  -6.0 2.53e+02  -7.7 1.00e+00 2.12e-01h  1
  95 -2.3592361e-01 1.33e+00 3.04e+01  -6.0 2.80e+02  -8.1 3.02e-01 7.20e-02h  1
  96 -2.3759466e-01 1.34e+00 2.39e+02  -6.0 2.29e+02  -7.7 9.30e-01 7.28e-01h  1
  97 -2.3868895e-01 7.96e-01 1.20e+02  -6.0 2.62e+02  -8.2 5.46e-01 5.14e-01h  1
  98 -2.3935443e-01 8.51e-01 6.39e+01  -6.0 9.73e+01  -7.8 7.41e-01 4.94e-01h  1
  99 -2.4038499e-01 7.22e+00 5.14e+01  -6.0 1.03e+03  -8.2 1.69e-01 2.81e-01h  1
iter    objective    inf_pr   inf_du lg(mu)  ||d||  lg(rg) alpha_du alpha_pr  ls
 100 -2.4191709e-01 7.36e+00 3.70e+01  -6.0 4.52e+02  -8.7 2.93e-01 2.83e-01h  1
 101 -2.4354732e-01 6.80e+00 3.10e+01  -6.0 1.93e+03  -9.2 1.63e-01 1.65e-01h  1
 102 -2.4388076e-01 6.31e+00 1.85e+03  -6.0 4.62e+02  -8.8 4.23e-01 8.23e-02h  1
 103 -2.4395063e-01 6.26e+00 1.72e+03  -6.0 1.37e+03  -9.2 3.87e-01 8.21e-03h  1
 104 -2.4739520e-01 4.01e+00 1.46e+03  -6.0 4.90e+02  -8.8 3.51e-01 8.36e-01h  1
 105 -2.4747673e-01 3.96e+00 1.34e+03  -6.0 1.17e+03  -9.3 3.42e-02 1.14e-02h  1
 106 -2.4768732e-01 3.70e+00 3.41e+02  -6.0 4.81e+02  -8.9 2.92e-01 7.50e-02f  1
 107 -2.4984577e-01 6.64e+00 1.89e+02  -6.0 1.44e+03  -9.4 8.16e-02 2.96e-01h  1
 108 -2.5093123e-01 5.12e+00 9.05e+01  -6.0 5.44e+02  -8.9 1.14e-01 3.74e-01h  1
 109 -2.5337984e-01 1.25e+01 7.46e+01  -6.0 2.11e+03  -9.4 4.73e-01 2.93e-01h  1
iter    objective    inf_pr   inf_du lg(mu)  ||d||  lg(rg) alpha_du alpha_pr  ls
 110 -2.5356178e-01 1.05e+01 5.05e+01  -6.0 5.18e+02  -9.0 5.14e-01 1.64e-01h  1
 111 -2.5503665e-01 5.17e+00 1.98e+01  -6.0 1.34e+03  -9.5 1.53e-02 5.07e-01h  1
 112 -2.5514877e-01 5.04e+00 2.01e+01  -6.0 2.98e+03  -9.9 1.17e-01 2.48e-02h  1
 113 -2.5657128e-01 1.28e+00 1.89e+01  -6.0 1.50e+03  -9.5 6.49e-01 7.60e-01h  1
 114 -2.5732703e-01 1.57e+00 2.20e+01  -6.0 2.84e+03 -10.0 2.53e-01 2.72e-01h  1
 115 -2.5814959e-01 4.27e+00 9.24e+00  -6.0 4.31e+03 -10.5 2.81e-01 2.69e-01h  1
 116 -2.5825747e-01 3.75e+00 2.27e+01  -6.0 9.62e+02 -10.0 2.09e-01 1.27e-01h  1
 117 -2.5837897e-01 2.56e+00 1.35e+01  -6.0 3.32e+02  -9.6 3.24e-01 3.26e-01h  1
 118 -2.5848436e-01 2.28e+00 3.14e+01  -6.0 6.64e+02 -10.1 2.01e-01 1.37e-01h  1
 119 -2.5867082e-01 1.28e+00 1.11e+01  -6.0 3.06e+02  -9.7 4.40e-01 4.73e-01h  1
iter    objective    inf_pr   inf_du lg(mu)  ||d||  lg(rg) alpha_du alpha_pr  ls
 120 -2.5882739e-01 2.01e+00 3.27e+02  -6.0 8.80e+02 -10.1 2.06e-01 3.69e-01h  1
 121 -2.5909269e-01 1.36e+00 2.48e+03  -6.0 2.67e+02  -9.7 1.53e-01 1.00e+00h  1
 122 -2.5914367e-01 1.72e+00 2.23e+03  -6.0 1.90e+03 -10.2 3.26e-01 1.08e-01h  1
 123 -2.5942767e-01 1.38e+01 8.25e+00  -6.0 8.33e+02  -9.8 1.00e+00 1.00e+00h  1
 124 -2.5961047e-01 7.45e+00 1.83e+02  -6.0 2.41e+02  -9.3 5.58e-01 4.75e-01h  1
 125 -2.5968307e-01 7.42e+00 6.99e+02  -6.0 1.85e+03  -9.8 2.66e-01 1.12e-01h  1
 126 -2.5996114e-01 1.65e+01 2.26e+03  -6.0 9.58e+02 -10.3 3.40e-01 1.00e+00h  1
 127 -2.6001484e-01 1.04e+01 6.69e+02  -6.0 1.33e+03 -10.8 1.19e-01 3.72e-01h  1
 128 -2.6001176e-01 1.04e+01 2.08e+03  -6.0 5.40e+04    -  1.79e-02 1.24e-02h  2
 129 -2.6000032e-01 1.91e+01 1.70e+03  -6.0 5.35e+03    -  1.80e-01 1.85e-01h  1
iter    objective    inf_pr   inf_du lg(mu)  ||d||  lg(rg) alpha_du alpha_pr  ls
 130 -2.5994643e-01 1.55e+01 9.11e+02  -6.0 1.52e+03    -  1.97e-01 3.20e-01h  1
 131 -2.5993417e-01 1.47e+01 7.26e+02  -6.0 5.93e+03    -  5.11e-01 1.28e-01H  1
 132 -2.5990722e-01 1.23e+01 5.28e+02  -6.0 1.74e+03    -  1.92e-01 2.70e-01h  1
 133 -2.5990514e-01 1.20e+01 5.22e+02  -6.0 9.60e+03 -11.2 4.82e-01 2.13e-02h  1
 134 -2.5988937e-01 9.72e+00 4.01e+02  -6.0 8.76e+02    -  1.69e-01 2.32e-01h  1
 135 -2.5990048e-01 9.68e+00 4.00e+02  -6.0 6.83e+04 -10.8 2.26e-02 3.47e-03h  1
 136 -2.5983943e-01 5.65e+00 9.07e+01  -6.0 1.59e+03    -  1.91e-01 7.71e-01h  1
 137 -2.5981381e-01 5.55e+00 8.70e+01  -6.0 8.72e+03    -  4.34e-04 3.59e-02H  1
 138 -2.5982076e-01 5.46e+00 8.51e+01  -6.0 1.17e+04 -10.4 5.59e-02 2.17e-02h  2
 139 -2.5983224e-01 5.35e+00 8.01e+01  -6.0 3.85e+03 -10.0 1.42e-01 5.22e-02h  1
iter    objective    inf_pr   inf_du lg(mu)  ||d||  lg(rg) alpha_du alpha_pr  ls
 140 -2.5992511e-01 7.57e+00 6.29e+01  -6.0 2.04e+03  -9.5 9.35e-02 2.13e-01h  1
 141 -2.6003023e-01 6.05e+00 5.22e+02  -6.0 5.38e+02  -9.1 4.53e-01 2.06e-01h  1
 142 -2.6061535e-01 1.34e+01 2.80e+02  -6.0 2.11e+03  -9.6 2.55e-01 5.70e-01h  1
 143 -2.6063702e-01 1.17e+01 1.18e+03  -6.0 4.55e+03    -  6.42e-02 1.97e-01h  1
 144 -2.6069173e-01 1.02e+01 7.99e+02  -6.0 2.84e+03    -  3.27e-01 1.23e-01h  1
 145 -2.6091883e-01 3.24e+00 2.07e+03  -6.0 2.89e+03    -  1.37e-01 1.00e+00h  1
 146 -2.6087463e-01 2.58e+00 1.24e+03  -6.0 2.55e+02  -9.2 2.48e-01 2.03e-01h  1
 147 -2.6089348e-01 2.31e+00 9.61e+02  -6.0 1.64e+03  -9.6 2.54e-01 1.09e-01h  1
 148 -2.6094325e-01 2.03e+00 3.11e+05  -6.0 1.96e+03 -10.1 2.95e-03 1.26e-01h  2
 149 -2.6067933e-01 8.87e-01 2.41e+03  -6.0 2.00e+02  -9.7 1.03e-01 1.00e+00h  1
iter    objective    inf_pr   inf_du lg(mu)  ||d||  lg(rg) alpha_du alpha_pr  ls
 150 -2.6070718e-01 5.67e-01 1.27e+00  -6.0 1.80e+02 -10.2 1.00e+00 1.00e+00h  1
 151 -2.6071026e-01 8.83e-01 1.26e+02  -6.0 2.30e+03 -10.6 7.85e-01 6.18e-02h  2
 152 -2.6075351e-01 2.28e+00 1.15e+00  -6.0 5.42e+02    -  1.00e+00 1.00e+00h  1
 153 -2.6075558e-01 1.68e+00 9.14e+00  -6.0 3.35e+02 -10.2 1.00e+00 3.87e-01h  1
 154 -2.6074378e-01 3.72e-01 1.87e-01  -6.0 1.50e+02    -  1.00e+00 1.00e+00h  1
 155 -2.6074350e-01 2.28e-03 1.61e-03  -6.0 1.20e+01    -  1.00e+00 1.00e+00h  1
 156 -2.6074349e-01 5.13e-06 1.65e-06  -6.0 5.56e-01    -  1.00e+00 1.00e+00h  1
 157 -2.6122817e-01 1.39e+00 8.07e+01  -7.5 2.65e+03    -  5.02e-01 2.19e-01h  1
 158 -2.6141741e-01 3.76e+00 5.86e+01  -7.5 3.37e+03    -  3.06e-02 1.19e-01h  1
 159 -2.6146102e-01 3.54e+00 8.50e+01  -7.5 2.33e+02  -8.9 2.77e-01 5.97e-02h  1
iter    objective    inf_pr   inf_du lg(mu)  ||d||  lg(rg) alpha_du alpha_pr  ls
 160 -2.6188675e-01 1.27e+01 5.43e+01  -7.5 2.55e+03    -  6.91e-04 3.70e-01h  1
 161 -2.6204075e-01 9.11e+00 7.99e+01  -7.5 1.85e+03    -  5.09e-01 2.83e-01h  1
 162 -2.6205297e-01 8.97e+00 1.15e+02  -7.5 2.86e+03    -  3.69e-01 2.92e-02h  1
 163 -2.6235186e-01 3.06e+00 3.58e+01  -7.5 1.70e+03    -  6.13e-02 7.51e-01h  1
 164 -2.6236250e-01 2.04e+00 1.97e+01  -7.5 6.55e+02    -  9.60e-01 3.38e-01h  1
 165 -2.6237545e-01 6.54e-01 5.77e+00  -7.5 4.30e+01  -9.4 1.00e+00 6.79e-01h  1
 166 -2.6242257e-01 2.63e+00 8.17e-01  -7.5 7.52e+02    -  3.03e-01 8.96e-01h  1
 167 -2.6242172e-01 1.79e+00 5.54e-01  -7.5 1.89e+02  -9.8 4.37e-02 3.24e-01h  1
 168 -2.6240837e-01 6.48e-02 3.66e-01  -7.5 5.97e+01 -10.3 6.51e-01 1.00e+00h  1
 169 -2.6241406e-01 1.17e-01 5.87e-01  -7.5 1.87e+02 -10.8 1.00e+00 3.40e-01h  1
iter    objective    inf_pr   inf_du lg(mu)  ||d||  lg(rg) alpha_du alpha_pr  ls
 170 -2.6240834e-01 6.06e-02 4.09e-02  -7.5 1.08e+02 -11.3 1.00e+00 1.00e+00H  1
 171 -2.6240879e-01 5.23e-02 3.71e-01  -7.5 2.79e+02 -11.8 1.00e+00 1.25e-01h  4
 172 -2.6241284e-01 1.44e-01 9.71e-03  -7.5 1.05e+02 -11.3 1.00e+00 1.00e+00h  1
 173 -2.6241382e-01 2.75e-01 4.14e-04  -7.5 5.57e+01 -10.9 1.00e+00 1.00e+00h  1
 174 -2.6241402e-01 1.15e+00 7.61e-02  -7.5 2.58e+02 -11.4 3.25e-01 1.00e+00h  1
 175 -2.6241403e-01 1.11e-01 5.74e-05  -7.5 5.27e+01 -11.0 1.00e+00 1.00e+00h  1
 176 -2.6241409e-01 1.32e+00 1.30e-03  -7.5 2.76e+02 -11.4 1.00e+00 1.00e+00h  1
 177 -2.6241418e-01 2.42e+00 6.19e-02  -7.5 6.78e+03    -  7.24e-02 5.29e-02h  4
 178 -2.6241429e-01 1.80e+00 2.69e-03  -7.5 3.81e+02 -11.9 1.00e+00 1.00e+00h  1
 179 -2.6241480e-01 5.40e+00 5.52e-02  -7.5 1.30e+03 -12.4 1.00e+00 1.00e+00H  1
iter    objective    inf_pr   inf_du lg(mu)  ||d||  lg(rg) alpha_du alpha_pr  ls
 180 -2.6241487e-01 5.59e+00 1.35e+00  -7.5 6.52e+03 -12.9 4.37e-01 2.43e-02h  5
 181 -2.6241493e-01 5.73e+00 2.57e+00  -7.5 4.63e+03    -  1.00e+00 3.40e-02h  5
 182 -2.6241536e-01 2.95e+00 2.23e-02  -7.5 8.01e+02    -  1.00e+00 1.00e+00H  1
 183 -2.6241551e-01 4.13e+00 1.26e+00  -7.5 1.85e+04    -  1.22e-01 1.62e-02h  4
 184 -2.6241566e-01 4.94e+00 1.44e+00  -7.5 2.91e+03    -  1.00e+00 1.02e-01h  4
 185 -2.6241629e-01 1.79e+01 4.75e-02  -7.5 1.13e+03    -  1.00e+00 1.00e+00h  1
 186 -2.6241636e-01 1.76e+01 4.40e-02  -7.5 4.32e+03    -  2.08e-02 2.91e-02h  5
 187 -2.6241656e-01 2.25e+00 4.05e-01  -7.5 2.59e+02 -11.5 2.57e-01 1.00e+00h  1
 188 -2.6241662e-01 1.44e-01 3.02e-04  -7.5 9.70e+01 -11.1 1.00e+00 1.00e+00h  1
 189 -2.6241703e-01 6.80e+00 1.01e-01  -7.5 6.74e+02    -  7.36e-01 1.00e+00h  1
iter    objective    inf_pr   inf_du lg(mu)  ||d||  lg(rg) alpha_du alpha_pr  ls
 190 -2.6241729e-01 2.49e+00 1.00e-02  -7.5 3.95e+02    -  1.00e+00 1.00e+00h  1
 191 -2.6241727e-01 6.62e-03 8.05e-05  -7.5 2.30e+01    -  1.00e+00 1.00e+00h  1
 192 -2.6241727e-01 3.79e-07 1.21e-08  -7.5 1.62e-01    -  1.00e+00 1.00e+00h  1
 193 -2.6241977e-01 2.99e+00 3.03e+00  -9.0 1.70e+03    -  5.24e-01 2.58e-01h  1
 194 -2.6242184e-01 6.18e+01 1.62e+00  -9.0 5.71e+03    -  2.68e-01 3.41e-01h  1
 195 -2.6242274e-01 4.38e+01 7.52e-01  -9.0 1.56e+03    -  3.78e-01 4.23e-01h  1
 196 -2.6242315e-01 3.66e+01 4.73e-01  -9.0 1.85e+03    -  2.54e-01 2.81e-01h  1
 197 -2.6242423e-01 1.00e+02 1.39e+01  -9.0 4.56e+03    -  3.28e-02 6.49e-01h  1
 198 -2.6242529e-01 4.83e+01 3.88e+01  -9.0 1.82e+03    -  9.40e-04 1.00e+00h  1
 199 -2.6242551e-01 9.27e+00 7.58e+00  -9.0 7.77e+02    -  1.15e-01 1.00e+00h  1
iter    objective    inf_pr   inf_du lg(mu)  ||d||  lg(rg) alpha_du alpha_pr  ls
 200 -2.6242585e-01 1.79e+01 9.48e-01  -9.0 1.12e+03    -  4.28e-01 1.00e+00h  1
 201 -2.6242597e-01 8.59e+00 2.19e-01  -9.0 6.71e+02    -  7.60e-01 9.19e-01h  1
 202 -2.6242598e-01 8.58e+00 1.86e-01  -9.0 8.06e+03    -  2.03e-01 5.19e-03h  5
 203 -2.6242601e-01 8.55e+00 1.24e-01  -9.0 2.23e+03    -  9.12e-01 7.01e-02h  3
 204 -2.6242610e-01 8.75e+00 4.65e-02  -9.0 1.19e+03    -  9.92e-01 3.57e-01H  1
 205 -2.6242604e-01 1.42e+00 5.26e-02  -9.0 3.11e+02    -  4.77e-01 1.00e+00h  1
 206 -2.6242637e-01 3.60e+01 4.23e-02  -9.0 2.00e+03    -  9.89e-02 7.87e-01h  1
 207 -2.6242632e-01 2.80e+01 3.46e-02  -9.0 1.06e+03    -  1.80e-01 2.50e-01h  3
 208 -2.6242634e-01 2.80e+01 3.29e-02  -9.0 3.27e+04    -  5.04e-02 2.97e-03h  5
 209 -2.6242638e-01 2.83e+01 4.31e-02  -9.0 1.50e+04    -  1.02e-01 1.29e-02h  4
iter    objective    inf_pr   inf_du lg(mu)  ||d||  lg(rg) alpha_du alpha_pr  ls
 210 -2.6242642e-01 4.03e-01 2.87e-02  -9.0 1.33e+02 -11.6 2.61e-01 1.00e+00h  1
 211 -2.6242696e-01 4.25e+01 1.86e-02  -9.0 2.50e+03    -  1.00e+00 1.00e+00H  1
 212 -2.6242695e-01 4.08e-01 3.71e-04  -9.0 1.10e+02 -12.1 1.00e+00 1.00e+00h  1
 213 -2.6242726e-01 9.64e+00 8.04e-02  -9.0 3.06e+03    -  2.20e-02 1.00e+00H  1
 214 -2.6242726e-01 2.26e-02 2.17e-04  -9.0 3.01e+01 -11.6 1.00e+00 1.00e+00h  1
 215 -2.6242725e-01 1.99e-01 6.26e-05  -9.0 9.23e+01 -12.1 1.00e+00 1.00e+00h  1
 216 -2.6242724e-01 1.95e+00 9.45e-04  -9.0 2.90e+02 -12.6 1.00e+00 1.00e+00h  1
 217 -2.6242723e-01 4.91e+00 9.91e-04  -9.0 7.86e+02 -13.1 1.00e+00 1.00e+00H  1
 218 -2.6242725e-01 3.44e+00 3.37e-02  -9.0 2.18e+03    -  8.23e-01 1.80e-01h  3
 219 -2.6242725e-01 3.67e+00 4.05e-02  -9.0 1.42e+03    -  1.00e+00 1.25e-01h  4
iter    objective    inf_pr   inf_du lg(mu)  ||d||  lg(rg) alpha_du alpha_pr  ls
 220 -2.6242728e-01 2.62e-01 2.32e-03  -9.0 6.80e+02    -  1.00e+00 1.00e+00H  1
 221 -2.6242729e-01 1.11e-01 9.05e-04  -9.0 2.77e+02    -  1.00e+00 1.00e+00H  1
 222 -2.6242730e-01 7.32e-02 5.33e-05  -9.0 5.72e+01    -  1.00e+00 1.00e+00h  1
 223 -2.6242730e-01 1.12e-04 6.71e-08  -9.0 2.16e+00    -  1.00e+00 1.00e+00h  1
 224 -2.6242730e-01 2.82e-10 4.29e-14  -9.0 1.47e-03    -  1.00e+00 1.00e+00h  1

Number of Iterations....: 224

                                   (scaled)                 (unscaled)
Objective...............:  -2.6242729590356845e-01   -2.6242729590356845e-01
Dual infeasibility......:   4.2891874051072279e-14    4.2891874051072279e-14
Constraint violation....:   2.8224532650292233e-10    2.8224532650292233e-10
Complementarity.........:   9.0909092364199111e-10    9.0909092364199111e-10
Overall NLP error.......:   9.0909092364199111e-10    9.0909092364199111e-10


Number of objective function evaluations             = 437
Number of objective gradient evaluations             = 225
Number of equality constraint evaluations            = 437
Number of inequality constraint evaluations          = 438
Number of equality constraint Jacobian evaluations   = 226
Number of inequality constraint Jacobian evaluations = 226
Number of Lagrangian Hessian evaluations             = 224
Total CPU secs in IPOPT (w/o function evaluations)   =    371.291
Total CPU secs in NLP function evaluations           =      8.305

EXIT: Optimal Solution Found.
